; Benchmark for LTL-sketching problem
(set-logic QF_UF)
(set-info :status unknown)
(declare-fun z_0_0_0 () Bool)
(declare-fun z_0_1_0 () Bool)
(declare-fun z_0_2_0 () Bool)
(declare-fun z_0_3_0 () Bool)
(declare-fun z_0_4_0 () Bool)
(declare-fun z_0_5_0 () Bool)
(declare-fun z_0_6_0 () Bool)
(declare-fun z_0_7_0 () Bool)
(declare-fun z_0_8_0 () Bool)
(declare-fun z_0_9_0 () Bool)
(declare-fun z_0_10_0 () Bool)
(declare-fun z_0_11_0 () Bool)
(declare-fun z_0_12_0 () Bool)
(declare-fun z_0_13_0 () Bool)
(declare-fun z_0_14_0 () Bool)
(declare-fun z_0_15_0 () Bool)
(declare-fun z_0_16_0 () Bool)
(declare-fun z_0_17_0 () Bool)
(declare-fun z_0_18_0 () Bool)
(declare-fun z_0_19_0 () Bool)
(declare-fun z_1_0_0 () Bool)
(declare-fun z_1_1_0 () Bool)
(declare-fun z_1_2_0 () Bool)
(declare-fun z_1_3_0 () Bool)
(declare-fun z_1_4_0 () Bool)
(declare-fun z_1_5_0 () Bool)
(declare-fun z_1_6_0 () Bool)
(declare-fun z_1_7_0 () Bool)
(declare-fun z_1_8_0 () Bool)
(declare-fun z_1_9_0 () Bool)
(declare-fun z_0_10_1 () Bool)
(declare-fun z_1_10_0 () Bool)
(declare-fun z_0_10_2 () Bool)
(declare-fun z_1_10_1 () Bool)
(declare-fun z_0_10_3 () Bool)
(declare-fun z_1_10_2 () Bool)
(declare-fun z_0_10_4 () Bool)
(declare-fun z_1_10_3 () Bool)
(declare-fun z_0_10_5 () Bool)
(declare-fun z_1_10_4 () Bool)
(declare-fun z_0_10_6 () Bool)
(declare-fun z_1_10_5 () Bool)
(declare-fun z_0_10_7 () Bool)
(declare-fun z_1_10_6 () Bool)
(declare-fun z_0_10_8 () Bool)
(declare-fun z_1_10_7 () Bool)
(declare-fun z_0_10_9 () Bool)
(declare-fun z_1_10_8 () Bool)
(declare-fun z_0_10_10 () Bool)
(declare-fun z_1_10_9 () Bool)
(declare-fun z_0_10_11 () Bool)
(declare-fun z_1_10_10 () Bool)
(declare-fun z_0_10_12 () Bool)
(declare-fun z_1_10_11 () Bool)
(declare-fun z_0_10_13 () Bool)
(declare-fun z_1_10_12 () Bool)
(declare-fun z_0_10_14 () Bool)
(declare-fun z_1_10_13 () Bool)
(declare-fun z_1_10_14 () Bool)
(declare-fun z_0_11_1 () Bool)
(declare-fun z_1_11_0 () Bool)
(declare-fun z_0_11_2 () Bool)
(declare-fun z_1_11_1 () Bool)
(declare-fun z_0_11_3 () Bool)
(declare-fun z_1_11_2 () Bool)
(declare-fun z_0_11_4 () Bool)
(declare-fun z_1_11_3 () Bool)
(declare-fun z_0_11_5 () Bool)
(declare-fun z_1_11_4 () Bool)
(declare-fun z_0_11_6 () Bool)
(declare-fun z_1_11_5 () Bool)
(declare-fun z_0_11_7 () Bool)
(declare-fun z_1_11_6 () Bool)
(declare-fun z_0_11_8 () Bool)
(declare-fun z_1_11_7 () Bool)
(declare-fun z_0_11_9 () Bool)
(declare-fun z_1_11_8 () Bool)
(declare-fun z_0_11_10 () Bool)
(declare-fun z_1_11_9 () Bool)
(declare-fun z_0_11_11 () Bool)
(declare-fun z_1_11_10 () Bool)
(declare-fun z_0_11_12 () Bool)
(declare-fun z_1_11_11 () Bool)
(declare-fun z_1_11_12 () Bool)
(declare-fun z_0_12_1 () Bool)
(declare-fun z_1_12_0 () Bool)
(declare-fun z_0_12_2 () Bool)
(declare-fun z_1_12_1 () Bool)
(declare-fun z_0_12_3 () Bool)
(declare-fun z_1_12_2 () Bool)
(declare-fun z_0_12_4 () Bool)
(declare-fun z_1_12_3 () Bool)
(declare-fun z_0_12_5 () Bool)
(declare-fun z_1_12_4 () Bool)
(declare-fun z_0_12_6 () Bool)
(declare-fun z_1_12_5 () Bool)
(declare-fun z_0_12_7 () Bool)
(declare-fun z_1_12_6 () Bool)
(declare-fun z_0_12_8 () Bool)
(declare-fun z_1_12_7 () Bool)
(declare-fun z_0_12_9 () Bool)
(declare-fun z_1_12_8 () Bool)
(declare-fun z_0_12_10 () Bool)
(declare-fun z_1_12_9 () Bool)
(declare-fun z_0_12_11 () Bool)
(declare-fun z_1_12_10 () Bool)
(declare-fun z_0_12_12 () Bool)
(declare-fun z_1_12_11 () Bool)
(declare-fun z_0_12_13 () Bool)
(declare-fun z_1_12_12 () Bool)
(declare-fun z_1_12_13 () Bool)
(declare-fun z_0_13_1 () Bool)
(declare-fun z_1_13_0 () Bool)
(declare-fun z_0_13_2 () Bool)
(declare-fun z_1_13_1 () Bool)
(declare-fun z_0_13_3 () Bool)
(declare-fun z_1_13_2 () Bool)
(declare-fun z_0_13_4 () Bool)
(declare-fun z_1_13_3 () Bool)
(declare-fun z_0_13_5 () Bool)
(declare-fun z_1_13_4 () Bool)
(declare-fun z_0_13_6 () Bool)
(declare-fun z_1_13_5 () Bool)
(declare-fun z_0_13_7 () Bool)
(declare-fun z_1_13_6 () Bool)
(declare-fun z_0_13_8 () Bool)
(declare-fun z_1_13_7 () Bool)
(declare-fun z_0_13_9 () Bool)
(declare-fun z_1_13_8 () Bool)
(declare-fun z_0_13_10 () Bool)
(declare-fun z_1_13_9 () Bool)
(declare-fun z_0_13_11 () Bool)
(declare-fun z_1_13_10 () Bool)
(declare-fun z_1_13_11 () Bool)
(declare-fun z_0_14_1 () Bool)
(declare-fun z_1_14_0 () Bool)
(declare-fun z_0_14_2 () Bool)
(declare-fun z_1_14_1 () Bool)
(declare-fun z_0_14_3 () Bool)
(declare-fun z_1_14_2 () Bool)
(declare-fun z_0_14_4 () Bool)
(declare-fun z_1_14_3 () Bool)
(declare-fun z_0_14_5 () Bool)
(declare-fun z_1_14_4 () Bool)
(declare-fun z_0_14_6 () Bool)
(declare-fun z_1_14_5 () Bool)
(declare-fun z_0_14_7 () Bool)
(declare-fun z_1_14_6 () Bool)
(declare-fun z_0_14_8 () Bool)
(declare-fun z_1_14_7 () Bool)
(declare-fun z_0_14_9 () Bool)
(declare-fun z_1_14_8 () Bool)
(declare-fun z_0_14_10 () Bool)
(declare-fun z_1_14_9 () Bool)
(declare-fun z_0_14_11 () Bool)
(declare-fun z_1_14_10 () Bool)
(declare-fun z_0_14_12 () Bool)
(declare-fun z_1_14_11 () Bool)
(declare-fun z_0_14_13 () Bool)
(declare-fun z_1_14_12 () Bool)
(declare-fun z_1_14_13 () Bool)
(declare-fun z_0_15_1 () Bool)
(declare-fun z_1_15_0 () Bool)
(declare-fun z_0_15_2 () Bool)
(declare-fun z_1_15_1 () Bool)
(declare-fun z_0_15_3 () Bool)
(declare-fun z_1_15_2 () Bool)
(declare-fun z_0_15_4 () Bool)
(declare-fun z_1_15_3 () Bool)
(declare-fun z_0_15_5 () Bool)
(declare-fun z_1_15_4 () Bool)
(declare-fun z_0_15_6 () Bool)
(declare-fun z_1_15_5 () Bool)
(declare-fun z_0_15_7 () Bool)
(declare-fun z_1_15_6 () Bool)
(declare-fun z_0_15_8 () Bool)
(declare-fun z_1_15_7 () Bool)
(declare-fun z_0_15_9 () Bool)
(declare-fun z_1_15_8 () Bool)
(declare-fun z_0_15_10 () Bool)
(declare-fun z_1_15_9 () Bool)
(declare-fun z_0_15_11 () Bool)
(declare-fun z_1_15_10 () Bool)
(declare-fun z_0_15_12 () Bool)
(declare-fun z_1_15_11 () Bool)
(declare-fun z_1_15_12 () Bool)
(declare-fun z_0_16_1 () Bool)
(declare-fun z_1_16_0 () Bool)
(declare-fun z_0_16_2 () Bool)
(declare-fun z_1_16_1 () Bool)
(declare-fun z_0_16_3 () Bool)
(declare-fun z_1_16_2 () Bool)
(declare-fun z_0_16_4 () Bool)
(declare-fun z_1_16_3 () Bool)
(declare-fun z_0_16_5 () Bool)
(declare-fun z_1_16_4 () Bool)
(declare-fun z_0_16_6 () Bool)
(declare-fun z_1_16_5 () Bool)
(declare-fun z_0_16_7 () Bool)
(declare-fun z_1_16_6 () Bool)
(declare-fun z_0_16_8 () Bool)
(declare-fun z_1_16_7 () Bool)
(declare-fun z_0_16_9 () Bool)
(declare-fun z_1_16_8 () Bool)
(declare-fun z_0_16_10 () Bool)
(declare-fun z_1_16_9 () Bool)
(declare-fun z_0_16_11 () Bool)
(declare-fun z_1_16_10 () Bool)
(declare-fun z_0_16_12 () Bool)
(declare-fun z_1_16_11 () Bool)
(declare-fun z_0_16_13 () Bool)
(declare-fun z_1_16_12 () Bool)
(declare-fun z_0_16_14 () Bool)
(declare-fun z_1_16_13 () Bool)
(declare-fun z_1_16_14 () Bool)
(declare-fun z_0_17_1 () Bool)
(declare-fun z_1_17_0 () Bool)
(declare-fun z_0_17_2 () Bool)
(declare-fun z_1_17_1 () Bool)
(declare-fun z_0_17_3 () Bool)
(declare-fun z_1_17_2 () Bool)
(declare-fun z_0_17_4 () Bool)
(declare-fun z_1_17_3 () Bool)
(declare-fun z_0_17_5 () Bool)
(declare-fun z_1_17_4 () Bool)
(declare-fun z_0_17_6 () Bool)
(declare-fun z_1_17_5 () Bool)
(declare-fun z_0_17_7 () Bool)
(declare-fun z_1_17_6 () Bool)
(declare-fun z_0_17_8 () Bool)
(declare-fun z_1_17_7 () Bool)
(declare-fun z_0_17_9 () Bool)
(declare-fun z_1_17_8 () Bool)
(declare-fun z_1_17_9 () Bool)
(declare-fun z_0_18_1 () Bool)
(declare-fun z_1_18_0 () Bool)
(declare-fun z_0_18_2 () Bool)
(declare-fun z_1_18_1 () Bool)
(declare-fun z_0_18_3 () Bool)
(declare-fun z_1_18_2 () Bool)
(declare-fun z_0_18_4 () Bool)
(declare-fun z_1_18_3 () Bool)
(declare-fun z_0_18_5 () Bool)
(declare-fun z_1_18_4 () Bool)
(declare-fun z_0_18_6 () Bool)
(declare-fun z_1_18_5 () Bool)
(declare-fun z_0_18_7 () Bool)
(declare-fun z_1_18_6 () Bool)
(declare-fun z_0_18_8 () Bool)
(declare-fun z_1_18_7 () Bool)
(declare-fun z_0_18_9 () Bool)
(declare-fun z_1_18_8 () Bool)
(declare-fun z_0_18_10 () Bool)
(declare-fun z_1_18_9 () Bool)
(declare-fun z_0_18_11 () Bool)
(declare-fun z_1_18_10 () Bool)
(declare-fun z_0_18_12 () Bool)
(declare-fun z_1_18_11 () Bool)
(declare-fun z_1_18_12 () Bool)
(declare-fun z_0_19_1 () Bool)
(declare-fun z_1_19_0 () Bool)
(declare-fun z_0_19_2 () Bool)
(declare-fun z_1_19_1 () Bool)
(declare-fun z_0_19_3 () Bool)
(declare-fun z_1_19_2 () Bool)
(declare-fun z_0_19_4 () Bool)
(declare-fun z_1_19_3 () Bool)
(declare-fun z_0_19_5 () Bool)
(declare-fun z_1_19_4 () Bool)
(declare-fun z_0_19_6 () Bool)
(declare-fun z_1_19_5 () Bool)
(declare-fun z_0_19_7 () Bool)
(declare-fun z_1_19_6 () Bool)
(declare-fun z_0_19_8 () Bool)
(declare-fun z_1_19_7 () Bool)
(declare-fun z_0_19_9 () Bool)
(declare-fun z_1_19_8 () Bool)
(declare-fun z_0_19_10 () Bool)
(declare-fun z_1_19_9 () Bool)
(declare-fun z_0_19_11 () Bool)
(declare-fun z_1_19_10 () Bool)
(declare-fun z_0_19_12 () Bool)
(declare-fun z_1_19_11 () Bool)
(declare-fun z_1_19_12 () Bool)
(declare-fun z_3_0_0 () Bool)
(declare-fun z_3_1_0 () Bool)
(declare-fun z_3_2_0 () Bool)
(declare-fun z_3_3_0 () Bool)
(declare-fun z_3_4_0 () Bool)
(declare-fun z_3_5_0 () Bool)
(declare-fun z_3_6_0 () Bool)
(declare-fun z_3_7_0 () Bool)
(declare-fun z_3_8_0 () Bool)
(declare-fun z_3_9_0 () Bool)
(declare-fun z_3_10_0 () Bool)
(declare-fun z_3_10_1 () Bool)
(declare-fun z_3_10_2 () Bool)
(declare-fun z_3_10_3 () Bool)
(declare-fun z_3_10_4 () Bool)
(declare-fun z_3_10_5 () Bool)
(declare-fun z_3_10_6 () Bool)
(declare-fun z_3_10_7 () Bool)
(declare-fun z_3_10_8 () Bool)
(declare-fun z_3_10_9 () Bool)
(declare-fun z_3_10_10 () Bool)
(declare-fun z_3_10_11 () Bool)
(declare-fun z_3_10_12 () Bool)
(declare-fun z_3_10_13 () Bool)
(declare-fun z_3_10_14 () Bool)
(declare-fun z_3_11_0 () Bool)
(declare-fun z_3_11_1 () Bool)
(declare-fun z_3_11_2 () Bool)
(declare-fun z_3_11_3 () Bool)
(declare-fun z_3_11_4 () Bool)
(declare-fun z_3_11_5 () Bool)
(declare-fun z_3_11_6 () Bool)
(declare-fun z_3_11_7 () Bool)
(declare-fun z_3_11_8 () Bool)
(declare-fun z_3_11_9 () Bool)
(declare-fun z_3_11_10 () Bool)
(declare-fun z_3_11_11 () Bool)
(declare-fun z_3_11_12 () Bool)
(declare-fun z_3_12_0 () Bool)
(declare-fun z_3_12_1 () Bool)
(declare-fun z_3_12_2 () Bool)
(declare-fun z_3_12_3 () Bool)
(declare-fun z_3_12_4 () Bool)
(declare-fun z_3_12_5 () Bool)
(declare-fun z_3_12_6 () Bool)
(declare-fun z_3_12_7 () Bool)
(declare-fun z_3_12_8 () Bool)
(declare-fun z_3_12_9 () Bool)
(declare-fun z_3_12_10 () Bool)
(declare-fun z_3_12_11 () Bool)
(declare-fun z_3_12_12 () Bool)
(declare-fun z_3_12_13 () Bool)
(declare-fun z_3_13_0 () Bool)
(declare-fun z_3_13_1 () Bool)
(declare-fun z_3_13_2 () Bool)
(declare-fun z_3_13_3 () Bool)
(declare-fun z_3_13_4 () Bool)
(declare-fun z_3_13_5 () Bool)
(declare-fun z_3_13_6 () Bool)
(declare-fun z_3_13_7 () Bool)
(declare-fun z_3_13_8 () Bool)
(declare-fun z_3_13_9 () Bool)
(declare-fun z_3_13_10 () Bool)
(declare-fun z_3_13_11 () Bool)
(declare-fun z_3_14_0 () Bool)
(declare-fun z_3_14_1 () Bool)
(declare-fun z_3_14_2 () Bool)
(declare-fun z_3_14_3 () Bool)
(declare-fun z_3_14_4 () Bool)
(declare-fun z_3_14_5 () Bool)
(declare-fun z_3_14_6 () Bool)
(declare-fun z_3_14_7 () Bool)
(declare-fun z_3_14_8 () Bool)
(declare-fun z_3_14_9 () Bool)
(declare-fun z_3_14_10 () Bool)
(declare-fun z_3_14_11 () Bool)
(declare-fun z_3_14_12 () Bool)
(declare-fun z_3_14_13 () Bool)
(declare-fun z_3_15_0 () Bool)
(declare-fun z_3_15_1 () Bool)
(declare-fun z_3_15_2 () Bool)
(declare-fun z_3_15_3 () Bool)
(declare-fun z_3_15_4 () Bool)
(declare-fun z_3_15_5 () Bool)
(declare-fun z_3_15_6 () Bool)
(declare-fun z_3_15_7 () Bool)
(declare-fun z_3_15_8 () Bool)
(declare-fun z_3_15_9 () Bool)
(declare-fun z_3_15_10 () Bool)
(declare-fun z_3_15_11 () Bool)
(declare-fun z_3_15_12 () Bool)
(declare-fun z_3_16_0 () Bool)
(declare-fun z_3_16_1 () Bool)
(declare-fun z_3_16_2 () Bool)
(declare-fun z_3_16_3 () Bool)
(declare-fun z_3_16_4 () Bool)
(declare-fun z_3_16_5 () Bool)
(declare-fun z_3_16_6 () Bool)
(declare-fun z_3_16_7 () Bool)
(declare-fun z_3_16_8 () Bool)
(declare-fun z_3_16_9 () Bool)
(declare-fun z_3_16_10 () Bool)
(declare-fun z_3_16_11 () Bool)
(declare-fun z_3_16_12 () Bool)
(declare-fun z_3_16_13 () Bool)
(declare-fun z_3_16_14 () Bool)
(declare-fun z_3_17_0 () Bool)
(declare-fun z_3_17_1 () Bool)
(declare-fun z_3_17_2 () Bool)
(declare-fun z_3_17_3 () Bool)
(declare-fun z_3_17_4 () Bool)
(declare-fun z_3_17_5 () Bool)
(declare-fun z_3_17_6 () Bool)
(declare-fun z_3_17_7 () Bool)
(declare-fun z_3_17_8 () Bool)
(declare-fun z_3_17_9 () Bool)
(declare-fun z_3_18_0 () Bool)
(declare-fun z_3_18_1 () Bool)
(declare-fun z_3_18_2 () Bool)
(declare-fun z_3_18_3 () Bool)
(declare-fun z_3_18_4 () Bool)
(declare-fun z_3_18_5 () Bool)
(declare-fun z_3_18_6 () Bool)
(declare-fun z_3_18_7 () Bool)
(declare-fun z_3_18_8 () Bool)
(declare-fun z_3_18_9 () Bool)
(declare-fun z_3_18_10 () Bool)
(declare-fun z_3_18_11 () Bool)
(declare-fun z_3_18_12 () Bool)
(declare-fun z_3_19_0 () Bool)
(declare-fun z_3_19_1 () Bool)
(declare-fun z_3_19_2 () Bool)
(declare-fun z_3_19_3 () Bool)
(declare-fun z_3_19_4 () Bool)
(declare-fun z_3_19_5 () Bool)
(declare-fun z_3_19_6 () Bool)
(declare-fun z_3_19_7 () Bool)
(declare-fun z_3_19_8 () Bool)
(declare-fun z_3_19_9 () Bool)
(declare-fun z_3_19_10 () Bool)
(declare-fun z_3_19_11 () Bool)
(declare-fun z_3_19_12 () Bool)
(declare-fun x_3_p () Bool)
(declare-fun x_3_-> () Bool)
(declare-fun x_3_U () Bool)
(declare-fun x_3_v () Bool)
(declare-fun x_3_& () Bool)
(declare-fun x_3_X () Bool)
(declare-fun x_3_! () Bool)
(declare-fun x_3_F () Bool)
(declare-fun x_3_G () Bool)
(assert
 (= z_0_0_0 true))
(assert
 (= z_0_1_0 true))
(assert
 (= z_0_2_0 true))
(assert
 (= z_0_3_0 true))
(assert
 (= z_0_4_0 true))
(assert
 (= z_0_5_0 true))
(assert
 (= z_0_6_0 true))
(assert
 (= z_0_7_0 true))
(assert
 (= z_0_8_0 true))
(assert
 (= z_0_9_0 true))
(assert
 (= z_0_10_0 false))
(assert
 (= z_0_11_0 false))
(assert
 (= z_0_12_0 false))
(assert
 (= z_0_13_0 false))
(assert
 (= z_0_14_0 false))
(assert
 (= z_0_15_0 false))
(assert
 (= z_0_16_0 false))
(assert
 (= z_0_17_0 false))
(assert
 (= z_0_18_0 false))
(assert
 (= z_0_19_0 false))
(assert
 (= z_0_0_0 (and z_1_0_0)))
(assert
 (= z_0_1_0 (and z_1_1_0)))
(assert
 (= z_0_2_0 (and z_1_2_0)))
(assert
 (= z_0_3_0 (and z_1_3_0)))
(assert
 (= z_0_4_0 (and z_1_4_0)))
(assert
 (= z_0_5_0 (and z_1_5_0)))
(assert
 (= z_0_6_0 (and z_1_6_0)))
(assert
 (= z_0_7_0 (and z_1_7_0)))
(assert
 (= z_0_8_0 (and z_1_8_0)))
(assert
 (= z_0_9_0 (and z_1_9_0)))
(assert
 (= z_0_10_0 (and z_1_10_0 z_0_10_1)))
(assert
 (= z_0_10_1 (and z_1_10_1 z_0_10_2)))
(assert
 (= z_0_10_2 (and z_1_10_2 z_0_10_3)))
(assert
 (= z_0_10_3 (and z_1_10_3 z_0_10_4)))
(assert
 (= z_0_10_4 (and z_1_10_4 z_0_10_5)))
(assert
 (= z_0_10_5 (and z_1_10_5 z_0_10_6)))
(assert
 (= z_0_10_6 (and z_1_10_6 z_0_10_7)))
(assert
 (= z_0_10_7 (and z_1_10_7 z_0_10_8)))
(assert
 (= z_0_10_8 (and z_1_10_8 z_0_10_9)))
(assert
 (= z_0_10_9 (and z_1_10_9 z_0_10_10)))
(assert
 (= z_0_10_10 (and z_1_10_10 z_0_10_11)))
(assert
 (= z_0_10_11 (and z_1_10_11 z_0_10_12)))
(assert
 (= z_0_10_12 (and z_1_10_12 z_0_10_13)))
(assert
 (= z_0_10_13 (and z_1_10_13 z_0_10_14)))
(assert
 (let (($x131 (and z_1_10_7 z_1_10_8 z_1_10_9 z_1_10_10 z_1_10_11 z_1_10_12 z_1_10_13 z_1_10_14)))
 (= z_0_10_14 $x131)))
(assert
 (= z_0_11_0 (and z_1_11_0 z_0_11_1)))
(assert
 (= z_0_11_1 (and z_1_11_1 z_0_11_2)))
(assert
 (= z_0_11_2 (and z_1_11_2 z_0_11_3)))
(assert
 (= z_0_11_3 (and z_1_11_3 z_0_11_4)))
(assert
 (= z_0_11_4 (and z_1_11_4 z_0_11_5)))
(assert
 (= z_0_11_5 (and z_1_11_5 z_0_11_6)))
(assert
 (= z_0_11_6 (and z_1_11_6 z_0_11_7)))
(assert
 (= z_0_11_7 (and z_1_11_7 z_0_11_8)))
(assert
 (= z_0_11_8 (and z_1_11_8 z_0_11_9)))
(assert
 (= z_0_11_9 (and z_1_11_9 z_0_11_10)))
(assert
 (= z_0_11_10 (and z_1_11_10 z_0_11_11)))
(assert
 (= z_0_11_11 (and z_1_11_11 z_0_11_12)))
(assert
 (let (($x183 (and z_1_11_5 z_1_11_6 z_1_11_7 z_1_11_8 z_1_11_9 z_1_11_10 z_1_11_11 z_1_11_12)))
 (= z_0_11_12 $x183)))
(assert
 (= z_0_12_0 (and z_1_12_0 z_0_12_1)))
(assert
 (= z_0_12_1 (and z_1_12_1 z_0_12_2)))
(assert
 (= z_0_12_2 (and z_1_12_2 z_0_12_3)))
(assert
 (= z_0_12_3 (and z_1_12_3 z_0_12_4)))
(assert
 (= z_0_12_4 (and z_1_12_4 z_0_12_5)))
(assert
 (= z_0_12_5 (and z_1_12_5 z_0_12_6)))
(assert
 (= z_0_12_6 (and z_1_12_6 z_0_12_7)))
(assert
 (= z_0_12_7 (and z_1_12_7 z_0_12_8)))
(assert
 (= z_0_12_8 (and z_1_12_8 z_0_12_9)))
(assert
 (= z_0_12_9 (and z_1_12_9 z_0_12_10)))
(assert
 (= z_0_12_10 (and z_1_12_10 z_0_12_11)))
(assert
 (= z_0_12_11 (and z_1_12_11 z_0_12_12)))
(assert
 (= z_0_12_12 (and z_1_12_12 z_0_12_13)))
(assert
 (let (($x239 (and z_1_12_8 z_1_12_9 z_1_12_10 z_1_12_11 z_1_12_12 z_1_12_13)))
 (= z_0_12_13 $x239)))
(assert
 (= z_0_13_0 (and z_1_13_0 z_0_13_1)))
(assert
 (= z_0_13_1 (and z_1_13_1 z_0_13_2)))
(assert
 (= z_0_13_2 (and z_1_13_2 z_0_13_3)))
(assert
 (= z_0_13_3 (and z_1_13_3 z_0_13_4)))
(assert
 (= z_0_13_4 (and z_1_13_4 z_0_13_5)))
(assert
 (= z_0_13_5 (and z_1_13_5 z_0_13_6)))
(assert
 (= z_0_13_6 (and z_1_13_6 z_0_13_7)))
(assert
 (= z_0_13_7 (and z_1_13_7 z_0_13_8)))
(assert
 (= z_0_13_8 (and z_1_13_8 z_0_13_9)))
(assert
 (= z_0_13_9 (and z_1_13_9 z_0_13_10)))
(assert
 (= z_0_13_10 (and z_1_13_10 z_0_13_11)))
(assert
 (let (($x287 (and z_1_13_5 z_1_13_6 z_1_13_7 z_1_13_8 z_1_13_9 z_1_13_10 z_1_13_11)))
 (= z_0_13_11 $x287)))
(assert
 (= z_0_14_0 (and z_1_14_0 z_0_14_1)))
(assert
 (= z_0_14_1 (and z_1_14_1 z_0_14_2)))
(assert
 (= z_0_14_2 (and z_1_14_2 z_0_14_3)))
(assert
 (= z_0_14_3 (and z_1_14_3 z_0_14_4)))
(assert
 (= z_0_14_4 (and z_1_14_4 z_0_14_5)))
(assert
 (= z_0_14_5 (and z_1_14_5 z_0_14_6)))
(assert
 (= z_0_14_6 (and z_1_14_6 z_0_14_7)))
(assert
 (= z_0_14_7 (and z_1_14_7 z_0_14_8)))
(assert
 (= z_0_14_8 (and z_1_14_8 z_0_14_9)))
(assert
 (= z_0_14_9 (and z_1_14_9 z_0_14_10)))
(assert
 (= z_0_14_10 (and z_1_14_10 z_0_14_11)))
(assert
 (= z_0_14_11 (and z_1_14_11 z_0_14_12)))
(assert
 (= z_0_14_12 (and z_1_14_12 z_0_14_13)))
(assert
 (let (($x343 (and z_1_14_6 z_1_14_7 z_1_14_8 z_1_14_9 z_1_14_10 z_1_14_11 z_1_14_12 z_1_14_13)))
 (= z_0_14_13 $x343)))
(assert
 (= z_0_15_0 (and z_1_15_0 z_0_15_1)))
(assert
 (= z_0_15_1 (and z_1_15_1 z_0_15_2)))
(assert
 (= z_0_15_2 (and z_1_15_2 z_0_15_3)))
(assert
 (= z_0_15_3 (and z_1_15_3 z_0_15_4)))
(assert
 (= z_0_15_4 (and z_1_15_4 z_0_15_5)))
(assert
 (= z_0_15_5 (and z_1_15_5 z_0_15_6)))
(assert
 (= z_0_15_6 (and z_1_15_6 z_0_15_7)))
(assert
 (= z_0_15_7 (and z_1_15_7 z_0_15_8)))
(assert
 (= z_0_15_8 (and z_1_15_8 z_0_15_9)))
(assert
 (= z_0_15_9 (and z_1_15_9 z_0_15_10)))
(assert
 (= z_0_15_10 (and z_1_15_10 z_0_15_11)))
(assert
 (= z_0_15_11 (and z_1_15_11 z_0_15_12)))
(assert
 (let (($x395 (and z_1_15_6 z_1_15_7 z_1_15_8 z_1_15_9 z_1_15_10 z_1_15_11 z_1_15_12)))
 (= z_0_15_12 $x395)))
(assert
 (= z_0_16_0 (and z_1_16_0 z_0_16_1)))
(assert
 (= z_0_16_1 (and z_1_16_1 z_0_16_2)))
(assert
 (= z_0_16_2 (and z_1_16_2 z_0_16_3)))
(assert
 (= z_0_16_3 (and z_1_16_3 z_0_16_4)))
(assert
 (= z_0_16_4 (and z_1_16_4 z_0_16_5)))
(assert
 (= z_0_16_5 (and z_1_16_5 z_0_16_6)))
(assert
 (= z_0_16_6 (and z_1_16_6 z_0_16_7)))
(assert
 (= z_0_16_7 (and z_1_16_7 z_0_16_8)))
(assert
 (= z_0_16_8 (and z_1_16_8 z_0_16_9)))
(assert
 (= z_0_16_9 (and z_1_16_9 z_0_16_10)))
(assert
 (= z_0_16_10 (and z_1_16_10 z_0_16_11)))
(assert
 (= z_0_16_11 (and z_1_16_11 z_0_16_12)))
(assert
 (= z_0_16_12 (and z_1_16_12 z_0_16_13)))
(assert
 (= z_0_16_13 (and z_1_16_13 z_0_16_14)))
(assert
 (let (($x455 (and z_1_16_7 z_1_16_8 z_1_16_9 z_1_16_10 z_1_16_11 z_1_16_12 z_1_16_13 z_1_16_14)))
 (= z_0_16_14 $x455)))
(assert
 (= z_0_17_0 (and z_1_17_0 z_0_17_1)))
(assert
 (= z_0_17_1 (and z_1_17_1 z_0_17_2)))
(assert
 (= z_0_17_2 (and z_1_17_2 z_0_17_3)))
(assert
 (= z_0_17_3 (and z_1_17_3 z_0_17_4)))
(assert
 (= z_0_17_4 (and z_1_17_4 z_0_17_5)))
(assert
 (= z_0_17_5 (and z_1_17_5 z_0_17_6)))
(assert
 (= z_0_17_6 (and z_1_17_6 z_0_17_7)))
(assert
 (= z_0_17_7 (and z_1_17_7 z_0_17_8)))
(assert
 (= z_0_17_8 (and z_1_17_8 z_0_17_9)))
(assert
 (= z_0_17_9 (and z_1_17_4 z_1_17_5 z_1_17_6 z_1_17_7 z_1_17_8 z_1_17_9)))
(assert
 (= z_0_18_0 (and z_1_18_0 z_0_18_1)))
(assert
 (= z_0_18_1 (and z_1_18_1 z_0_18_2)))
(assert
 (= z_0_18_2 (and z_1_18_2 z_0_18_3)))
(assert
 (= z_0_18_3 (and z_1_18_3 z_0_18_4)))
(assert
 (= z_0_18_4 (and z_1_18_4 z_0_18_5)))
(assert
 (= z_0_18_5 (and z_1_18_5 z_0_18_6)))
(assert
 (= z_0_18_6 (and z_1_18_6 z_0_18_7)))
(assert
 (= z_0_18_7 (and z_1_18_7 z_0_18_8)))
(assert
 (= z_0_18_8 (and z_1_18_8 z_0_18_9)))
(assert
 (= z_0_18_9 (and z_1_18_9 z_0_18_10)))
(assert
 (= z_0_18_10 (and z_1_18_10 z_0_18_11)))
(assert
 (= z_0_18_11 (and z_1_18_11 z_0_18_12)))
(assert
 (let (($x547 (and z_1_18_5 z_1_18_6 z_1_18_7 z_1_18_8 z_1_18_9 z_1_18_10 z_1_18_11 z_1_18_12)))
 (= z_0_18_12 $x547)))
(assert
 (= z_0_19_0 (and z_1_19_0 z_0_19_1)))
(assert
 (= z_0_19_1 (and z_1_19_1 z_0_19_2)))
(assert
 (= z_0_19_2 (and z_1_19_2 z_0_19_3)))
(assert
 (= z_0_19_3 (and z_1_19_3 z_0_19_4)))
(assert
 (= z_0_19_4 (and z_1_19_4 z_0_19_5)))
(assert
 (= z_0_19_5 (and z_1_19_5 z_0_19_6)))
(assert
 (= z_0_19_6 (and z_1_19_6 z_0_19_7)))
(assert
 (= z_0_19_7 (and z_1_19_7 z_0_19_8)))
(assert
 (= z_0_19_8 (and z_1_19_8 z_0_19_9)))
(assert
 (= z_0_19_9 (and z_1_19_9 z_0_19_10)))
(assert
 (= z_0_19_10 (and z_1_19_10 z_0_19_11)))
(assert
 (= z_0_19_11 (and z_1_19_11 z_0_19_12)))
(assert
 (let (($x599 (and z_1_19_6 z_1_19_7 z_1_19_8 z_1_19_9 z_1_19_10 z_1_19_11 z_1_19_12)))
 (= z_0_19_12 $x599)))
(assert
 (let (($x4601 (not z_3_0_0)))
 (= z_1_0_0 $x4601)))
(assert
 (let (($x4606 (not z_3_1_0)))
 (= z_1_1_0 $x4606)))
(assert
 (let (($x4611 (not z_3_2_0)))
 (= z_1_2_0 $x4611)))
(assert
 (let (($x4616 (not z_3_3_0)))
 (= z_1_3_0 $x4616)))
(assert
 (let (($x4621 (not z_3_4_0)))
 (= z_1_4_0 $x4621)))
(assert
 (let (($x4626 (not z_3_5_0)))
 (= z_1_5_0 $x4626)))
(assert
 (let (($x4631 (not z_3_6_0)))
 (= z_1_6_0 $x4631)))
(assert
 (let (($x4636 (not z_3_7_0)))
 (= z_1_7_0 $x4636)))
(assert
 (let (($x4641 (not z_3_8_0)))
 (= z_1_8_0 $x4641)))
(assert
 (let (($x4646 (not z_3_9_0)))
 (= z_1_9_0 $x4646)))
(assert
 (= z_1_10_0 (not z_3_10_0)))
(assert
 (= z_1_10_1 (not z_3_10_1)))
(assert
 (let (($x4661 (not z_3_10_2)))
 (= z_1_10_2 $x4661)))
(assert
 (let (($x4666 (not z_3_10_3)))
 (= z_1_10_3 $x4666)))
(assert
 (let (($x4671 (not z_3_10_4)))
 (= z_1_10_4 $x4671)))
(assert
 (= z_1_10_5 (not z_3_10_5)))
(assert
 (let (($x4681 (not z_3_10_6)))
 (= z_1_10_6 $x4681)))
(assert
 (let (($x4686 (not z_3_10_7)))
 (= z_1_10_7 $x4686)))
(assert
 (= z_1_10_8 (not z_3_10_8)))
(assert
 (let (($x4696 (not z_3_10_9)))
 (= z_1_10_9 $x4696)))
(assert
 (let (($x4701 (not z_3_10_10)))
 (= z_1_10_10 $x4701)))
(assert
 (= z_1_10_11 (not z_3_10_11)))
(assert
 (= z_1_10_12 (not z_3_10_12)))
(assert
 (let (($x4716 (not z_3_10_13)))
 (= z_1_10_13 $x4716)))
(assert
 (= z_1_10_14 (not z_3_10_14)))
(assert
 (let (($x4726 (not z_3_11_0)))
 (= z_1_11_0 $x4726)))
(assert
 (let (($x4731 (not z_3_11_1)))
 (= z_1_11_1 $x4731)))
(assert
 (let (($x4736 (not z_3_11_2)))
 (= z_1_11_2 $x4736)))
(assert
 (= z_1_11_3 (not z_3_11_3)))
(assert
 (= z_1_11_4 (not z_3_11_4)))
(assert
 (= z_1_11_5 (not z_3_11_5)))
(assert
 (= z_1_11_6 (not z_3_11_6)))
(assert
 (= z_1_11_7 (not z_3_11_7)))
(assert
 (= z_1_11_8 (not z_3_11_8)))
(assert
 (let (($x4771 (not z_3_11_9)))
 (= z_1_11_9 $x4771)))
(assert
 (let (($x4776 (not z_3_11_10)))
 (= z_1_11_10 $x4776)))
(assert
 (= z_1_11_11 (not z_3_11_11)))
(assert
 (let (($x4786 (not z_3_11_12)))
 (= z_1_11_12 $x4786)))
(assert
 (let (($x4791 (not z_3_12_0)))
 (= z_1_12_0 $x4791)))
(assert
 (= z_1_12_1 (not z_3_12_1)))
(assert
 (let (($x4801 (not z_3_12_2)))
 (= z_1_12_2 $x4801)))
(assert
 (let (($x4806 (not z_3_12_3)))
 (= z_1_12_3 $x4806)))
(assert
 (= z_1_12_4 (not z_3_12_4)))
(assert
 (= z_1_12_5 (not z_3_12_5)))
(assert
 (let (($x4821 (not z_3_12_6)))
 (= z_1_12_6 $x4821)))
(assert
 (= z_1_12_7 (not z_3_12_7)))
(assert
 (= z_1_12_8 (not z_3_12_8)))
(assert
 (= z_1_12_9 (not z_3_12_9)))
(assert
 (let (($x4841 (not z_3_12_10)))
 (= z_1_12_10 $x4841)))
(assert
 (let (($x4846 (not z_3_12_11)))
 (= z_1_12_11 $x4846)))
(assert
 (let (($x4851 (not z_3_12_12)))
 (= z_1_12_12 $x4851)))
(assert
 (let (($x4856 (not z_3_12_13)))
 (= z_1_12_13 $x4856)))
(assert
 (let (($x4861 (not z_3_13_0)))
 (= z_1_13_0 $x4861)))
(assert
 (let (($x4866 (not z_3_13_1)))
 (= z_1_13_1 $x4866)))
(assert
 (let (($x4871 (not z_3_13_2)))
 (= z_1_13_2 $x4871)))
(assert
 (= z_1_13_3 (not z_3_13_3)))
(assert
 (= z_1_13_4 (not z_3_13_4)))
(assert
 (let (($x4886 (not z_3_13_5)))
 (= z_1_13_5 $x4886)))
(assert
 (= z_1_13_6 (not z_3_13_6)))
(assert
 (= z_1_13_7 (not z_3_13_7)))
(assert
 (let (($x4901 (not z_3_13_8)))
 (= z_1_13_8 $x4901)))
(assert
 (let (($x4906 (not z_3_13_9)))
 (= z_1_13_9 $x4906)))
(assert
 (= z_1_13_10 (not z_3_13_10)))
(assert
 (let (($x4916 (not z_3_13_11)))
 (= z_1_13_11 $x4916)))
(assert
 (let (($x4921 (not z_3_14_0)))
 (= z_1_14_0 $x4921)))
(assert
 (let (($x4926 (not z_3_14_1)))
 (= z_1_14_1 $x4926)))
(assert
 (let (($x4931 (not z_3_14_2)))
 (= z_1_14_2 $x4931)))
(assert
 (let (($x4936 (not z_3_14_3)))
 (= z_1_14_3 $x4936)))
(assert
 (= z_1_14_4 (not z_3_14_4)))
(assert
 (= z_1_14_5 (not z_3_14_5)))
(assert
 (let (($x4951 (not z_3_14_6)))
 (= z_1_14_6 $x4951)))
(assert
 (= z_1_14_7 (not z_3_14_7)))
(assert
 (let (($x4961 (not z_3_14_8)))
 (= z_1_14_8 $x4961)))
(assert
 (= z_1_14_9 (not z_3_14_9)))
(assert
 (= z_1_14_10 (not z_3_14_10)))
(assert
 (= z_1_14_11 (not z_3_14_11)))
(assert
 (let (($x4981 (not z_3_14_12)))
 (= z_1_14_12 $x4981)))
(assert
 (let (($x4986 (not z_3_14_13)))
 (= z_1_14_13 $x4986)))
(assert
 (= z_1_15_0 (not z_3_15_0)))
(assert
 (= z_1_15_1 (not z_3_15_1)))
(assert
 (= z_1_15_2 (not z_3_15_2)))
(assert
 (let (($x5006 (not z_3_15_3)))
 (= z_1_15_3 $x5006)))
(assert
 (let (($x5011 (not z_3_15_4)))
 (= z_1_15_4 $x5011)))
(assert
 (= z_1_15_5 (not z_3_15_5)))
(assert
 (= z_1_15_6 (not z_3_15_6)))
(assert
 (let (($x5026 (not z_3_15_7)))
 (= z_1_15_7 $x5026)))
(assert
 (= z_1_15_8 (not z_3_15_8)))
(assert
 (let (($x5036 (not z_3_15_9)))
 (= z_1_15_9 $x5036)))
(assert
 (let (($x5041 (not z_3_15_10)))
 (= z_1_15_10 $x5041)))
(assert
 (= z_1_15_11 (not z_3_15_11)))
(assert
 (let (($x5051 (not z_3_15_12)))
 (= z_1_15_12 $x5051)))
(assert
 (= z_1_16_0 (not z_3_16_0)))
(assert
 (= z_1_16_1 (not z_3_16_1)))
(assert
 (= z_1_16_2 (not z_3_16_2)))
(assert
 (= z_1_16_3 (not z_3_16_3)))
(assert
 (= z_1_16_4 (not z_3_16_4)))
(assert
 (= z_1_16_5 (not z_3_16_5)))
(assert
 (let (($x5086 (not z_3_16_6)))
 (= z_1_16_6 $x5086)))
(assert
 (let (($x5091 (not z_3_16_7)))
 (= z_1_16_7 $x5091)))
(assert
 (= z_1_16_8 (not z_3_16_8)))
(assert
 (= z_1_16_9 (not z_3_16_9)))
(assert
 (= z_1_16_10 (not z_3_16_10)))
(assert
 (= z_1_16_11 (not z_3_16_11)))
(assert
 (let (($x5116 (not z_3_16_12)))
 (= z_1_16_12 $x5116)))
(assert
 (let (($x5121 (not z_3_16_13)))
 (= z_1_16_13 $x5121)))
(assert
 (= z_1_16_14 (not z_3_16_14)))
(assert
 (let (($x5131 (not z_3_17_0)))
 (= z_1_17_0 $x5131)))
(assert
 (= z_1_17_1 (not z_3_17_1)))
(assert
 (= z_1_17_2 (not z_3_17_2)))
(assert
 (= z_1_17_3 (not z_3_17_3)))
(assert
 (= z_1_17_4 (not z_3_17_4)))
(assert
 (let (($x5156 (not z_3_17_5)))
 (= z_1_17_5 $x5156)))
(assert
 (let (($x5161 (not z_3_17_6)))
 (= z_1_17_6 $x5161)))
(assert
 (let (($x5166 (not z_3_17_7)))
 (= z_1_17_7 $x5166)))
(assert
 (let (($x5171 (not z_3_17_8)))
 (= z_1_17_8 $x5171)))
(assert
 (let (($x5176 (not z_3_17_9)))
 (= z_1_17_9 $x5176)))
(assert
 (= z_1_18_0 (not z_3_18_0)))
(assert
 (let (($x5186 (not z_3_18_1)))
 (= z_1_18_1 $x5186)))
(assert
 (let (($x5191 (not z_3_18_2)))
 (= z_1_18_2 $x5191)))
(assert
 (= z_1_18_3 (not z_3_18_3)))
(assert
 (let (($x5201 (not z_3_18_4)))
 (= z_1_18_4 $x5201)))
(assert
 (= z_1_18_5 (not z_3_18_5)))
(assert
 (= z_1_18_6 (not z_3_18_6)))
(assert
 (= z_1_18_7 (not z_3_18_7)))
(assert
 (let (($x5221 (not z_3_18_8)))
 (= z_1_18_8 $x5221)))
(assert
 (= z_1_18_9 (not z_3_18_9)))
(assert
 (= z_1_18_10 (not z_3_18_10)))
(assert
 (= z_1_18_11 (not z_3_18_11)))
(assert
 (= z_1_18_12 (not z_3_18_12)))
(assert
 (= z_1_19_0 (not z_3_19_0)))
(assert
 (let (($x5251 (not z_3_19_1)))
 (= z_1_19_1 $x5251)))
(assert
 (let (($x5256 (not z_3_19_2)))
 (= z_1_19_2 $x5256)))
(assert
 (= z_1_19_3 (not z_3_19_3)))
(assert
 (let (($x5266 (not z_3_19_4)))
 (= z_1_19_4 $x5266)))
(assert
 (let (($x5271 (not z_3_19_5)))
 (= z_1_19_5 $x5271)))
(assert
 (let (($x5276 (not z_3_19_6)))
 (= z_1_19_6 $x5276)))
(assert
 (= z_1_19_7 (not z_3_19_7)))
(assert
 (let (($x5286 (not z_3_19_8)))
 (= z_1_19_8 $x5286)))
(assert
 (let (($x5291 (not z_3_19_9)))
 (= z_1_19_9 $x5291)))
(assert
 (let (($x5296 (not z_3_19_10)))
 (= z_1_19_10 $x5296)))
(assert
 (= z_1_19_11 (not z_3_19_11)))
(assert
 (= z_1_19_12 (not z_3_19_12)))
(assert
 (and true true))
(assert
 (let (($x4601 (not z_3_0_0)))
 (=> x_3_p $x4601)))
(assert
 (let (($x4606 (not z_3_1_0)))
 (=> x_3_p $x4606)))
(assert
 (let (($x4611 (not z_3_2_0)))
 (=> x_3_p $x4611)))
(assert
 (let (($x4616 (not z_3_3_0)))
 (=> x_3_p $x4616)))
(assert
 (let (($x4621 (not z_3_4_0)))
 (=> x_3_p $x4621)))
(assert
 (let (($x4626 (not z_3_5_0)))
 (=> x_3_p $x4626)))
(assert
 (let (($x4631 (not z_3_6_0)))
 (=> x_3_p $x4631)))
(assert
 (let (($x4636 (not z_3_7_0)))
 (=> x_3_p $x4636)))
(assert
 (let (($x4641 (not z_3_8_0)))
 (=> x_3_p $x4641)))
(assert
 (let (($x4646 (not z_3_9_0)))
 (=> x_3_p $x4646)))
(assert
 (=> x_3_p z_3_10_0))
(assert
 (=> x_3_p z_3_10_1))
(assert
 (let (($x4661 (not z_3_10_2)))
 (=> x_3_p $x4661)))
(assert
 (let (($x4666 (not z_3_10_3)))
 (=> x_3_p $x4666)))
(assert
 (let (($x4671 (not z_3_10_4)))
 (=> x_3_p $x4671)))
(assert
 (=> x_3_p z_3_10_5))
(assert
 (let (($x4681 (not z_3_10_6)))
 (=> x_3_p $x4681)))
(assert
 (let (($x4686 (not z_3_10_7)))
 (=> x_3_p $x4686)))
(assert
 (=> x_3_p z_3_10_8))
(assert
 (let (($x4696 (not z_3_10_9)))
 (=> x_3_p $x4696)))
(assert
 (let (($x4701 (not z_3_10_10)))
 (=> x_3_p $x4701)))
(assert
 (=> x_3_p z_3_10_11))
(assert
 (=> x_3_p z_3_10_12))
(assert
 (let (($x4716 (not z_3_10_13)))
 (=> x_3_p $x4716)))
(assert
 (=> x_3_p z_3_10_14))
(assert
 (let (($x4726 (not z_3_11_0)))
 (=> x_3_p $x4726)))
(assert
 (let (($x4731 (not z_3_11_1)))
 (=> x_3_p $x4731)))
(assert
 (let (($x4736 (not z_3_11_2)))
 (=> x_3_p $x4736)))
(assert
 (=> x_3_p z_3_11_3))
(assert
 (=> x_3_p z_3_11_4))
(assert
 (=> x_3_p z_3_11_5))
(assert
 (=> x_3_p z_3_11_6))
(assert
 (=> x_3_p z_3_11_7))
(assert
 (=> x_3_p z_3_11_8))
(assert
 (let (($x4771 (not z_3_11_9)))
 (=> x_3_p $x4771)))
(assert
 (let (($x4776 (not z_3_11_10)))
 (=> x_3_p $x4776)))
(assert
 (=> x_3_p z_3_11_11))
(assert
 (let (($x4786 (not z_3_11_12)))
 (=> x_3_p $x4786)))
(assert
 (let (($x4791 (not z_3_12_0)))
 (=> x_3_p $x4791)))
(assert
 (=> x_3_p z_3_12_1))
(assert
 (let (($x4801 (not z_3_12_2)))
 (=> x_3_p $x4801)))
(assert
 (let (($x4806 (not z_3_12_3)))
 (=> x_3_p $x4806)))
(assert
 (=> x_3_p z_3_12_4))
(assert
 (=> x_3_p z_3_12_5))
(assert
 (let (($x4821 (not z_3_12_6)))
 (=> x_3_p $x4821)))
(assert
 (=> x_3_p z_3_12_7))
(assert
 (=> x_3_p z_3_12_8))
(assert
 (=> x_3_p z_3_12_9))
(assert
 (let (($x4841 (not z_3_12_10)))
 (=> x_3_p $x4841)))
(assert
 (let (($x4846 (not z_3_12_11)))
 (=> x_3_p $x4846)))
(assert
 (let (($x4851 (not z_3_12_12)))
 (=> x_3_p $x4851)))
(assert
 (let (($x4856 (not z_3_12_13)))
 (=> x_3_p $x4856)))
(assert
 (let (($x4861 (not z_3_13_0)))
 (=> x_3_p $x4861)))
(assert
 (let (($x4866 (not z_3_13_1)))
 (=> x_3_p $x4866)))
(assert
 (let (($x4871 (not z_3_13_2)))
 (=> x_3_p $x4871)))
(assert
 (=> x_3_p z_3_13_3))
(assert
 (=> x_3_p z_3_13_4))
(assert
 (let (($x4886 (not z_3_13_5)))
 (=> x_3_p $x4886)))
(assert
 (=> x_3_p z_3_13_6))
(assert
 (=> x_3_p z_3_13_7))
(assert
 (let (($x4901 (not z_3_13_8)))
 (=> x_3_p $x4901)))
(assert
 (let (($x4906 (not z_3_13_9)))
 (=> x_3_p $x4906)))
(assert
 (=> x_3_p z_3_13_10))
(assert
 (let (($x4916 (not z_3_13_11)))
 (=> x_3_p $x4916)))
(assert
 (let (($x4921 (not z_3_14_0)))
 (=> x_3_p $x4921)))
(assert
 (let (($x4926 (not z_3_14_1)))
 (=> x_3_p $x4926)))
(assert
 (let (($x4931 (not z_3_14_2)))
 (=> x_3_p $x4931)))
(assert
 (let (($x4936 (not z_3_14_3)))
 (=> x_3_p $x4936)))
(assert
 (=> x_3_p z_3_14_4))
(assert
 (=> x_3_p z_3_14_5))
(assert
 (let (($x4951 (not z_3_14_6)))
 (=> x_3_p $x4951)))
(assert
 (=> x_3_p z_3_14_7))
(assert
 (let (($x4961 (not z_3_14_8)))
 (=> x_3_p $x4961)))
(assert
 (=> x_3_p z_3_14_9))
(assert
 (=> x_3_p z_3_14_10))
(assert
 (=> x_3_p z_3_14_11))
(assert
 (let (($x4981 (not z_3_14_12)))
 (=> x_3_p $x4981)))
(assert
 (let (($x4986 (not z_3_14_13)))
 (=> x_3_p $x4986)))
(assert
 (=> x_3_p z_3_15_0))
(assert
 (=> x_3_p z_3_15_1))
(assert
 (=> x_3_p z_3_15_2))
(assert
 (let (($x5006 (not z_3_15_3)))
 (=> x_3_p $x5006)))
(assert
 (let (($x5011 (not z_3_15_4)))
 (=> x_3_p $x5011)))
(assert
 (=> x_3_p z_3_15_5))
(assert
 (=> x_3_p z_3_15_6))
(assert
 (let (($x5026 (not z_3_15_7)))
 (=> x_3_p $x5026)))
(assert
 (=> x_3_p z_3_15_8))
(assert
 (let (($x5036 (not z_3_15_9)))
 (=> x_3_p $x5036)))
(assert
 (let (($x5041 (not z_3_15_10)))
 (=> x_3_p $x5041)))
(assert
 (=> x_3_p z_3_15_11))
(assert
 (let (($x5051 (not z_3_15_12)))
 (=> x_3_p $x5051)))
(assert
 (=> x_3_p z_3_16_0))
(assert
 (=> x_3_p z_3_16_1))
(assert
 (=> x_3_p z_3_16_2))
(assert
 (=> x_3_p z_3_16_3))
(assert
 (=> x_3_p z_3_16_4))
(assert
 (=> x_3_p z_3_16_5))
(assert
 (let (($x5086 (not z_3_16_6)))
 (=> x_3_p $x5086)))
(assert
 (let (($x5091 (not z_3_16_7)))
 (=> x_3_p $x5091)))
(assert
 (=> x_3_p z_3_16_8))
(assert
 (=> x_3_p z_3_16_9))
(assert
 (=> x_3_p z_3_16_10))
(assert
 (=> x_3_p z_3_16_11))
(assert
 (let (($x5116 (not z_3_16_12)))
 (=> x_3_p $x5116)))
(assert
 (let (($x5121 (not z_3_16_13)))
 (=> x_3_p $x5121)))
(assert
 (=> x_3_p z_3_16_14))
(assert
 (let (($x5131 (not z_3_17_0)))
 (=> x_3_p $x5131)))
(assert
 (=> x_3_p z_3_17_1))
(assert
 (=> x_3_p z_3_17_2))
(assert
 (=> x_3_p z_3_17_3))
(assert
 (=> x_3_p z_3_17_4))
(assert
 (let (($x5156 (not z_3_17_5)))
 (=> x_3_p $x5156)))
(assert
 (let (($x5161 (not z_3_17_6)))
 (=> x_3_p $x5161)))
(assert
 (let (($x5166 (not z_3_17_7)))
 (=> x_3_p $x5166)))
(assert
 (let (($x5171 (not z_3_17_8)))
 (=> x_3_p $x5171)))
(assert
 (let (($x5176 (not z_3_17_9)))
 (=> x_3_p $x5176)))
(assert
 (=> x_3_p z_3_18_0))
(assert
 (let (($x5186 (not z_3_18_1)))
 (=> x_3_p $x5186)))
(assert
 (let (($x5191 (not z_3_18_2)))
 (=> x_3_p $x5191)))
(assert
 (=> x_3_p z_3_18_3))
(assert
 (let (($x5201 (not z_3_18_4)))
 (=> x_3_p $x5201)))
(assert
 (=> x_3_p z_3_18_5))
(assert
 (=> x_3_p z_3_18_6))
(assert
 (=> x_3_p z_3_18_7))
(assert
 (let (($x5221 (not z_3_18_8)))
 (=> x_3_p $x5221)))
(assert
 (=> x_3_p z_3_18_9))
(assert
 (=> x_3_p z_3_18_10))
(assert
 (=> x_3_p z_3_18_11))
(assert
 (=> x_3_p z_3_18_12))
(assert
 (=> x_3_p z_3_19_0))
(assert
 (let (($x5251 (not z_3_19_1)))
 (=> x_3_p $x5251)))
(assert
 (let (($x5256 (not z_3_19_2)))
 (=> x_3_p $x5256)))
(assert
 (=> x_3_p z_3_19_3))
(assert
 (let (($x5266 (not z_3_19_4)))
 (=> x_3_p $x5266)))
(assert
 (let (($x5271 (not z_3_19_5)))
 (=> x_3_p $x5271)))
(assert
 (let (($x5276 (not z_3_19_6)))
 (=> x_3_p $x5276)))
(assert
 (=> x_3_p z_3_19_7))
(assert
 (let (($x5286 (not z_3_19_8)))
 (=> x_3_p $x5286)))
(assert
 (let (($x5291 (not z_3_19_9)))
 (=> x_3_p $x5291)))
(assert
 (let (($x5296 (not z_3_19_10)))
 (=> x_3_p $x5296)))
(assert
 (=> x_3_p z_3_19_11))
(assert
 (=> x_3_p z_3_19_12))
(assert
 (or x_3_p))
(assert
 (let (($x5328 (not x_3_->)))
 (let (($x5326 (not x_3_U)))
 (let (($x5324 (not x_3_v)))
 (let (($x5322 (not x_3_&)))
 (let (($x5320 (not x_3_X)))
 (let (($x5318 (not x_3_!)))
 (let (($x5316 (not x_3_F)))
 (let (($x5314 (not x_3_G)))
 (and $x5314 $x5316 $x5318 $x5320 $x5322 $x5324 $x5326 $x5328))))))))))
(check-sat)

